
(set-logic ALL) 

(declare-datatype MyList ((Nil) (Cons (head Real) (tail MyList)) )) 
(declare-fun l0 () MyList) 
(declare-fun l1 () MyList) 
(declare-fun l2 () MyList) 
(declare-fun l3 () MyList) 
(declare-fun i0 () Real) 
(declare-fun i1 () Real) 
(assert (is-Cons Nil) )
(assert (is-Nil Nil) )
(assert (and (= l1 l1) (= l1 l0) (is-Cons Nil)) )
(assert (not (is-Cons Nil)) )
(assert (is-Nil Nil) )
(assert (not (= l0 Nil)) )
(assert (or (= l1 l0) (= l1 l3) (is-Nil Nil) (is-Cons Nil)) )
(assert (is-Cons Nil) )
(check-sat)
